Tried aggregator 2 times.
MIP Presolve eliminated 8 rows and 5 columns.
MIP Presolve modified 36 coefficients.
Aggregator did 36 substitutions.
Reduced MIP has 126 rows, 117 columns, and 292 nonzeros.
Reduced MIP has 72 binaries, 9 generals, 0 SOSs, and 0 indicators.
Presolve time = 0.00 sec. (0.25 ticks)
Found incumbent of value 8.000000 after 0.00 sec. (0.44 ticks)
Probing fixed 6 vars, tightened 16 bounds.
Probing time = 0.00 sec. (0.21 ticks)
Tried aggregator 3 times.
MIP Presolve eliminated 10 rows and 10 columns.
Aggregator did 36 substitutions.
Reduced MIP has 80 rows, 71 columns, and 198 nonzeros.
Reduced MIP has 52 binaries, 19 generals, 0 SOSs, and 0 indicators.
Presolve time = 0.00 sec. (0.33 ticks)
Probing time = 0.00 sec. (0.09 ticks)
Tried aggregator 1 time.
Reduced MIP has 80 rows, 71 columns, and 198 nonzeros.
Reduced MIP has 52 binaries, 19 generals, 0 SOSs, and 0 indicators.
Presolve time = 0.00 sec. (0.10 ticks)
Probing time = 0.00 sec. (0.09 ticks)
Clique table members: 40.
MIP emphasis: balance optimality and feasibility.
MIP search method: dynamic search.
Parallel mode: deterministic, using up to 4 threads.
Root relaxation solution time = 0.00 sec. (0.10 ticks)

        Nodes                                         Cuts/
   Node  Left     Objective  IInf  Best Integer    Best Bound    ItCnt     Gap

*     0+    0                            8.0000        3.0000       20   62.50%
      0     0        3.0000    25        8.0000        3.0000       20   62.50%
      0     0        3.0000    11        8.0000      Cuts: 17       30   62.50%
      0     0        3.0000    28        8.0000      Cuts: 19       45   62.50%
*     0+    0                            4.0000        3.0000       45   25.00%
*     0+    0                            3.0000        3.0000       45    0.00%
      0     0        cutoff              3.0000        3.0000       45    0.00%
Elapsed time = 0.02 sec. (4.86 ticks, tree = 0.00 MB, solutions = 3)

Implied bound cuts applied:  10
Zero-half cuts applied:  4
Gomory fractional cuts applied:  8

Root node processing (before b&c):
  Real time             =    0.02 sec. (4.87 ticks)
Parallel b&c, 4 threads:
  Real time             =    0.00 sec. (0.00 ticks)
  Sync time (average)   =    0.00 sec.
  Wait time (average)   =    0.00 sec.
                          ------------
Total (root+branch&cut) =    0.02 sec. (4.87 ticks)
